(set-logic ALL)
(declare-var conf_0 (BitVec 32))
(declare-var conf_0! (BitVec 32))
(declare-var lock (BitVec 32))
(declare-var lock! (BitVec 32))
(declare-var x (BitVec 32))
(declare-var x! (BitVec 32))
(declare-var y (BitVec 32))
(declare-var y! (BitVec 32))
(declare-var tmp (BitVec 32))
(declare-var tmp! (BitVec 32))
(declare-var conf_0_0 (BitVec 32))
(declare-var conf_0_0! (BitVec 32))
(declare-var conf_0_1 (BitVec 32))
(declare-var conf_0_1! (BitVec 32))
(declare-var conf_0_2 (BitVec 32))
(declare-var conf_0_2! (BitVec 32))
(declare-var conf_0_3 (BitVec 32))
(declare-var conf_0_3! (BitVec 32))
(declare-var conf_0_4 (BitVec 32))
(declare-var conf_0_4! (BitVec 32))
(declare-var conf_0_5 (BitVec 32))
(declare-var conf_0_5! (BitVec 32))
(declare-var conf_0_6 (BitVec 32))
(declare-var conf_0_6! (BitVec 32))
(declare-var conf_0_7 (BitVec 32))
(declare-var conf_0_7! (BitVec 32))
(declare-var lock_0 (BitVec 32))
(declare-var lock_0! (BitVec 32))
(declare-var lock_1 (BitVec 32))
(declare-var lock_1! (BitVec 32))
(declare-var lock_2 (BitVec 32))
(declare-var lock_2! (BitVec 32))
(declare-var lock_3 (BitVec 32))
(declare-var lock_3! (BitVec 32))
(declare-var lock_4 (BitVec 32))
(declare-var lock_4! (BitVec 32))
(declare-var lock_5 (BitVec 32))
(declare-var lock_5! (BitVec 32))
(declare-var x_0 (BitVec 32))
(declare-var x_0! (BitVec 32))
(declare-var x_1 (BitVec 32))
(declare-var x_1! (BitVec 32))
(declare-var x_2 (BitVec 32))
(declare-var x_2! (BitVec 32))
(declare-var x_3 (BitVec 32))
(declare-var x_3! (BitVec 32))
(declare-var x_4 (BitVec 32))
(declare-var x_4! (BitVec 32))
(declare-var x_5 (BitVec 32))
(declare-var x_5! (BitVec 32))
(declare-var y_0 (BitVec 32))
(declare-var y_0! (BitVec 32))
(declare-var y_1 (BitVec 32))
(declare-var y_1! (BitVec 32))
(declare-var y_2 (BitVec 32))
(declare-var y_2! (BitVec 32))
(declare-var y_3 (BitVec 32))
(declare-var y_3! (BitVec 32))
(synth-fun inv-f((parameter0 (BitVec 32))(parameter1 (BitVec 32))(parameter2 (BitVec 32))(parameter3 (BitVec 32))(parameter4 (BitVec 32))(parameter5 (BitVec 32))(parameter6 (BitVec 32))(parameter7 (BitVec 32))(parameter8 (BitVec 32))(parameter9 (BitVec 32))(parameter10 (BitVec 32))(parameter11 (BitVec 32))(parameter12 (BitVec 32))(parameter13 (BitVec 32))(parameter14 (BitVec 32))(parameter15 (BitVec 32))(parameter16 (BitVec 32))(parameter17 (BitVec 32))(parameter18 (BitVec 32))(parameter19 (BitVec 32))(parameter20 (BitVec 32))(parameter21 (BitVec 32))(parameter22 (BitVec 32))(parameter23 (BitVec 32))(parameter24 (BitVec 32))(parameter25 (BitVec 32))(parameter26 (BitVec 32))(parameter27 (BitVec 32))(parameter28 (BitVec 32)))Bool) 
(constraint (=> (and (and (and (and (and (and (= conf_0 conf_0_0) (= lock lock_1) ) (= x x_1) ) (= y y_0) ) (= conf_0_0 (_ bv5 32)) ) (= x_1 y_0) ) (= lock_1 (_ bv1 32)) )(inv-f conf_0 lock x y tmp conf_0_0 conf_0_1 conf_0_2 conf_0_3 conf_0_4 conf_0_5 conf_0_6 conf_0_7 lock_0 lock_1 lock_2 lock_3 lock_4 lock_5 x_0 x_1 x_2 x_3 x_4 x_5 y_0 y_1 y_2 y_3 )))
(constraint (=> (and (inv-f conf_0 lock x y tmp conf_0_0 conf_0_1 conf_0_2 conf_0_3 conf_0_4 conf_0_5 conf_0_6 conf_0_7 lock_0 lock_1 lock_2 lock_3 lock_4 lock_5 x_0 x_1 x_2 x_3 x_4 x_5 y_0 y_1 y_2 y_3 ) (or (or (and (and (and (and (and (and (and (and (and (and (= conf_0_1 conf_0) (= lock_2 lock) ) (= x_2 x) ) (= y_1 y) ) (= conf_0_1 conf_0!) ) (= lock_2 lock!) ) (= x_2 x!) ) (= y_1 y!) ) (= conf_0 conf_0!) ) (= lock lock!) ) (= tmp tmp!) ) (and (and (and (and (and (and (and (and (and (and (and (and (and (and (and (and (and (= conf_0_1 conf_0) (= lock_2 lock) ) (= x_2 x) ) (= y_1 y) ) (not (= x_2 y_1)) ) (= lock_3 (_ bv1 32)) ) (= conf_0_2 conf_0_1) ) (= x_3 y_1) ) (= conf_0_3 (bvadd (_ bv445 32) (_ bv35 32))) ) (= conf_0_4 conf_0_3) ) (= lock_4 lock_3) ) (= x_4 x_3) ) (= y_2 y_1) ) (= conf_0_4 conf_0!) ) (= lock_4 lock!) ) (= x_4 x!) ) (= y_2 y!) ) (= tmp tmp!) ) ) (and (and (and (and (and (and (and (and (and (and (and (and (and (and (and (and (and (and (and (= conf_0_1 conf_0) (= lock_2 lock) ) (= x_2 x) ) (= y_1 y) ) (not (= x_2 y_1)) ) (= lock_5 (_ bv0 32)) ) (= conf_0_5 (bvsub conf_0_1 (_ bv303 32))) ) (= x_5 y_1) ) (= conf_0_6 (bvsub conf_0_5 (_ bv403 32))) ) (= y_3 (bvadd y_1 (_ bv1 32))) ) (= conf_0_7 (_ bv73 32)) ) (= conf_0_4 conf_0_7) ) (= lock_4 lock_5) ) (= x_4 x_5) ) (= y_2 y_3) ) (= conf_0_4 conf_0!) ) (= lock_4 lock!) ) (= x_4 x!) ) (= y_2 y!) ) (= tmp tmp!) ) ) )(inv-f conf_0! lock! x! y! tmp! conf_0_0! conf_0_1! conf_0_2! conf_0_3! conf_0_4! conf_0_5! conf_0_6! conf_0_7! lock_0! lock_1! lock_2! lock_3! lock_4! lock_5! x_0! x_1! x_2! x_3! x_4! x_5! y_0! y_1! y_2! y_3! )))
(constraint (=> (inv-f conf_0 lock x y tmp conf_0_0 conf_0_1 conf_0_2 conf_0_3 conf_0_4 conf_0_5 conf_0_6 conf_0_7 lock_0 lock_1 lock_2 lock_3 lock_4 lock_5 x_0 x_1 x_2 x_3 x_4 x_5 y_0 y_1 y_2 y_3 )(or (not (and (and (and (= conf_0 conf_0_1) (= lock lock_2) ) (= x x_2) ) (= y y_1) )) (not (and (not (not (= x_2 y_1))) (not (= lock_2 (_ bv1 32))) )) )))
(check-synth)

